\ This file has been generated by DOcplex
\ ENCODING=ISO-8859-1
\Problem name: random_problem.lp

Minimize
 obj: - 152 x0 - 76 x1 - 198 x2 - 99 x3 - 246 x4 - 123 x5 + 498 x6 + 249 x7
      + 90 x8 + 45 x9 - 200 x10 - 100 x11 + 356 x12 + 178 x13 + 104 x14 + 52 x15
      - 10 x16 - 5 x17 - 224 x18 - 112 x19 - 468 x20 - 234 x21 + 218 x22
      + 109 x23 + [ 480 x0^2 + 480 x0*x1 + 368 x0*x2 + 184 x0*x3 + 736 x0*x4
      + 368 x0*x5 + 640 x0*x6 + 320 x0*x7 + 768 x0*x8 + 384 x0*x9 + 80 x0*x10
      + 40 x0*x11 + 1488 x0*x12 + 744 x0*x13 + 544 x0*x14 + 272 x0*x15
      + 384 x0*x16 + 192 x0*x17 + 400 x0*x18 + 200 x0*x19 + 272 x0*x20
      + 136 x0*x21 + 576 x0*x22 + 288 x0*x23 + 120 x1^2 + 184 x1*x2 + 92 x1*x3
      + 368 x1*x4 + 184 x1*x5 + 320 x1*x6 + 160 x1*x7 + 384 x1*x8 + 192 x1*x9
      + 40 x1*x10 + 20 x1*x11 + 744 x1*x12 + 372 x1*x13 + 272 x1*x14
      + 136 x1*x15 + 192 x1*x16 + 96 x1*x17 + 200 x1*x18 + 100 x1*x19
      + 136 x1*x20 + 68 x1*x21 + 288 x1*x22 + 144 x1*x23 + 464 x2^2 + 464 x2*x3
      + 208 x2*x4 + 104 x2*x5 + 320 x2*x6 + 160 x2*x7 + 544 x2*x8 + 272 x2*x9
      + 112 x2*x10 + 56 x2*x11 + 304 x2*x12 + 152 x2*x13 + 240 x2*x14
      + 120 x2*x15 + 352 x2*x16 + 176 x2*x17 + 1008 x2*x18 + 504 x2*x19
      + 208 x2*x20 + 104 x2*x21 + 96 x2*x22 + 48 x2*x23 + 116 x3^2 + 104 x3*x4
      + 52 x3*x5 + 160 x3*x6 + 80 x3*x7 + 272 x3*x8 + 136 x3*x9 + 56 x3*x10
      + 28 x3*x11 + 152 x3*x12 + 76 x3*x13 + 120 x3*x14 + 60 x3*x15 + 176 x3*x16
      + 88 x3*x17 + 504 x3*x18 + 252 x3*x19 + 104 x3*x20 + 52 x3*x21 + 48 x3*x22
      + 24 x3*x23 + 688 x4^2 + 688 x4*x5 + 496 x4*x6 + 248 x4*x7 + 848 x4*x8
      + 424 x4*x9 - 128 x4*x10 - 64 x4*x11 + 1760 x4*x12 + 880 x4*x13
      + 80 x4*x14 + 40 x4*x15 + 192 x4*x16 + 96 x4*x17 + 48 x4*x18 + 24 x4*x19
      + 64 x4*x20 + 32 x4*x21 + 432 x4*x22 + 216 x4*x23 + 172 x5^2 + 248 x5*x6
      + 124 x5*x7 + 424 x5*x8 + 212 x5*x9 - 64 x5*x10 - 32 x5*x11 + 880 x5*x12
      + 440 x5*x13 + 40 x5*x14 + 20 x5*x15 + 96 x5*x16 + 48 x5*x17 + 24 x5*x18
      + 12 x5*x19 + 32 x5*x20 + 16 x5*x21 + 216 x5*x22 + 108 x5*x23 + 680 x6^2
      + 680 x6*x7 + 496 x6*x8 + 248 x6*x9 + 336 x6*x10 + 168 x6*x11
      + 1120 x6*x12 + 560 x6*x13 + 1728 x6*x14 + 864 x6*x15 + 960 x6*x16
      + 480 x6*x17 + 480 x6*x18 + 240 x6*x19 + 736 x6*x20 + 368 x6*x21
      + 560 x6*x22 + 280 x6*x23 + 170 x7^2 + 248 x7*x8 + 124 x7*x9 + 168 x7*x10
      + 84 x7*x11 + 560 x7*x12 + 280 x7*x13 + 864 x7*x14 + 432 x7*x15
      + 480 x7*x16 + 240 x7*x17 + 240 x7*x18 + 120 x7*x19 + 368 x7*x20
      + 184 x7*x21 + 280 x7*x22 + 140 x7*x23 + 664 x8^2 + 664 x8*x9
      + 1184 x8*x12 + 592 x8*x13 + 224 x8*x14 + 112 x8*x15 + 208 x8*x16
      + 104 x8*x17 + 384 x8*x18 + 192 x8*x19 + 144 x8*x20 + 72 x8*x21
      + 448 x8*x22 + 224 x8*x23 + 166 x9^2 + 592 x9*x12 + 296 x9*x13
      + 112 x9*x14 + 56 x9*x15 + 104 x9*x16 + 52 x9*x17 + 192 x9*x18 + 96 x9*x19
      + 72 x9*x20 + 36 x9*x21 + 224 x9*x22 + 112 x9*x23 + 248 x10^2
      + 248 x10*x11 - 544 x10*x12 - 272 x10*x13 + 912 x10*x14 + 456 x10*x15
      + 464 x10*x16 + 232 x10*x17 + 320 x10*x18 + 160 x10*x19 + 528 x10*x20
      + 264 x10*x21 + 62 x11^2 - 272 x11*x12 - 136 x11*x13 + 456 x11*x14
      + 228 x11*x15 + 232 x11*x16 + 116 x11*x17 + 160 x11*x18 + 80 x11*x19
      + 264 x11*x20 + 132 x11*x21 + 2656 x12^2 + 2656 x12*x13 - 112 x12*x14
      - 56 x12*x15 + 480 x12*x16 + 240 x12*x17 + 608 x12*x18 + 304 x12*x19
      - 208 x12*x20 - 104 x12*x21 + 768 x12*x22 + 384 x12*x23 + 664 x13^2
      - 56 x13*x14 - 28 x13*x15 + 240 x13*x16 + 120 x13*x17 + 304 x13*x18
      + 152 x13*x19 - 104 x13*x20 - 52 x13*x21 + 384 x13*x22 + 192 x13*x23
      + 2416 x14^2 + 2416 x14*x15 + 2304 x14*x16 + 1152 x14*x17 + 224 x14*x18
      + 112 x14*x19 + 1552 x14*x20 + 776 x14*x21 + 480 x14*x22 + 240 x14*x23
      + 604 x15^2 + 1152 x15*x16 + 576 x15*x17 + 112 x15*x18 + 56 x15*x19
      + 776 x15*x20 + 388 x15*x21 + 240 x15*x22 + 120 x15*x23 + 912 x16^2
      + 912 x16*x17 + 160 x16*x18 + 80 x16*x19 + 752 x16*x20 + 376 x16*x21
      - 128 x16*x22 - 64 x16*x23 + 228 x17^2 + 80 x17*x18 + 40 x17*x19
      + 376 x17*x20 + 188 x17*x21 - 64 x17*x22 - 32 x17*x23 + 1152 x18^2
      + 1152 x18*x19 + 384 x18*x20 + 192 x18*x21 + 176 x18*x22 + 88 x18*x23
      + 288 x19^2 + 192 x19*x20 + 96 x19*x21 + 88 x19*x22 + 44 x19*x23
      + 504 x20^2 + 504 x20*x21 + 368 x20*x22 + 184 x20*x23 + 126 x21^2
      + 184 x21*x22 + 92 x21*x23 + 496 x22^2 + 496 x22*x23 + 124 x23^2 ]/2
Subject To
 c0: 2 x0 + x1 + 2 x2 + x3 + 2 x4 + x5 + 2 x6 + x7 + 2 x8 + x9 + 2 x10 + x11
     + 2 x12 + x13 + 2 x14 + x15 + 2 x16 + x17 + 2 x18 + x19 + 2 x20 + x21
     + 2 x22 + x23 = 3

Bounds
 0 <= x0 <= 1
 0 <= x1 <= 1
 0 <= x2 <= 1
 0 <= x3 <= 1
 0 <= x4 <= 1
 0 <= x5 <= 1
 0 <= x6 <= 1
 0 <= x7 <= 1
 0 <= x8 <= 1
 0 <= x9 <= 1
 0 <= x10 <= 1
 0 <= x11 <= 1
 0 <= x12 <= 1
 0 <= x13 <= 1
 0 <= x14 <= 1
 0 <= x15 <= 1
 0 <= x16 <= 1
 0 <= x17 <= 1
 0 <= x18 <= 1
 0 <= x19 <= 1
 0 <= x20 <= 1
 0 <= x21 <= 1
 0 <= x22 <= 1
 0 <= x23 <= 1

Binaries
 x0 x1 x2 x3 x4 x5 x6 x7 x8 x9 x10 x11 x12 x13 x14 x15 x16 x17 x18 x19 x20 x21
 x22 x23
End
